(set-logic ALL)
(set-option :produce-models true)
(declare-sort BoundSet 0)
(declare-sort UnboundSet 0)
(set-option :finite-model-find true)
(declare-fun IsInOvercoat (BoundSet) Bool)
(declare-fun IsPuttingOn (BoundSet BoundSet) Bool)
(declare-fun IsAtSubwayStation (BoundSet BoundSet) Bool)
(declare-fun IsInSubwayStation (BoundSet BoundSet) Bool)
(assert (not (=> (exists ((b BoundSet)) (exists ((a BoundSet)) (exists ((c BoundSet)) (and (IsInOvercoat a) (and (IsPuttingOn b a) (IsAtSubwayStation a c)))))) (exists ((d BoundSet)) (exists ((e BoundSet)) (IsInSubwayStation d e))))))
(check-sat)
(get-model)